;test regex cat file1.txt | egrep -vi "^(.*)(.{3,})(.*)\2(.*)$" > file2.txt
(declare-const X String)
(assert (str.in_re X (re.union (re.++ (str.to_re "c") (re.++ (str.to_re "a") (re.++ (str.to_re "t") (re.++ (str.to_re " ") (re.++ (str.to_re "f") (re.++ (str.to_re "i") (re.++ (str.to_re "l") (re.++ (str.to_re "e") (re.++ (str.to_re "1") (re.++ (re.diff re.allchar (str.to_re "\n")) (re.++ (str.to_re "t") (re.++ (str.to_re "x") (re.++ (str.to_re "t") (str.to_re " ")))))))))))))) (re.++ (re.++ (re.++ (str.to_re " ") (re.++ (str.to_re "e") (re.++ (str.to_re "g") (re.++ (str.to_re "r") (re.++ (str.to_re "e") (re.++ (str.to_re "p") (re.++ (str.to_re " ") (re.++ (str.to_re "-") (re.++ (str.to_re "v") (re.++ (str.to_re "i") (re.++ (str.to_re " ") (str.to_re "\u{22}")))))))))))) (re.++ (str.to_re "") (re.++ (re.* (re.diff re.allchar (str.to_re "\n"))) (re.++ (re.++ (re.* (re.diff re.allchar (str.to_re "\n"))) ((_ re.loop 3 3) (re.diff re.allchar (str.to_re "\n")))) (re.++ (re.* (re.diff re.allchar (str.to_re "\n"))) (re.++ (_ re.reference 2) (re.* (re.diff re.allchar (str.to_re "\n"))))))))) (re.++ (str.to_re "") (re.++ (str.to_re "\u{22}") (re.++ (str.to_re " ") (re.++ (str.to_re ">") (re.++ (str.to_re " ") (re.++ (str.to_re "f") (re.++ (str.to_re "i") (re.++ (str.to_re "l") (re.++ (str.to_re "e") (re.++ (str.to_re "2") (re.++ (re.diff re.allchar (str.to_re "\n")) (re.++ (str.to_re "t") (re.++ (str.to_re "x") (str.to_re "t"))))))))))))))))))
; sanitize danger characters:  < > ' " &
(assert (not (str.in_re X (re.++ re.all (re.union (str.to_re "\u{3c}") (str.to_re "\u{3e}") (str.to_re "\u{27}") (str.to_re "\u{22}") (str.to_re "\u{26}")) re.all))))
(assert (< 9 (str.len X)))
(check-sat)
(get-model)